Period = 7;

TSS_period = 650;
TSSb_period = 650;
TSSr_period = 650;
TSSs_period = 650;

CTLconst = 42;
ATLconst = 7;
CTLramp = 8;

CTL_0 = 35.0;
CTLb_0 = 20.5;
CTLr_0 = 7.6;
CTLs_0 = 6.9;

ATL_0 = 48;
ATLb_0 = 26.2;
ATLr_0 = 12.3;
ATLs_0 = 9.5;